<instance format="XCSP3" type="COP">
  <variables>
    <array id="emetteurs" note="Définition des variables du problème" size="[150]"> 14 28 42 56 70 84 98 112 126 140 154 168 182 196 210 224 238 252 266 280 294 308 322 336 350 364 378 392 406 420 434 448 462 476 490 504 518 532 546 560 574 588 602 616 630 644 658 672 686 700 714 728 </array>
    <array id="recepteurs" size="[150]" as="emetteurs"/>
    <array id="aux_gb" note="aux_gb[i] is the ith auxiliary variable having been automatically introduced" size="[26]">
      <domain for="aux_gb[0..1] aux_gb[20..21]"> 1..15 </domain>
      <domain for="aux_gb[2..3] aux_gb[24..25]"> 1..14 </domain>
      <domain for="aux_gb[4..5] aux_gb[10..11]"> 1..12 </domain>
      <domain for="aux_gb[6] aux_gb[7]"> 1..9 </domain>
      <domain for="aux_gb[8] aux_gb[9]"> 1..13 </domain>
      <domain for="aux_gb[12] aux_gb[13]"> 1..11 </domain>
      <domain for="aux_gb[14] aux_gb[15]"> 1..8 </domain>
      <domain for="aux_gb[16..19]"> 1..10 </domain>
      <domain for="aux_gb[22] aux_gb[23]"> 1..7 </domain>
    </array>
  </variables>
  <constraints>
    <group note="distance entre fréquence émettrice et réceptrice d'une station">
      <intension> eq(dist(%0,%1),266) </intension>
      <args> emetteurs[0] recepteurs[0] </args>
      <args> emetteurs[1] recepteurs[1] </args>
      <args> emetteurs[2] recepteurs[2] </args>
      <args> emetteurs[3] recepteurs[3] </args>
      <args> emetteurs[4] recepteurs[4] </args>
      <args> emetteurs[5] recepteurs[5] </args>
      <args> emetteurs[6] recepteurs[6] </args>
      <args> emetteurs[7] recepteurs[7] </args>
      <args> emetteurs[8] recepteurs[8] </args>
      <args> emetteurs[9] recepteurs[9] </args>
      <args> emetteurs[10] recepteurs[10] </args>
      <args> emetteurs[11] recepteurs[11] </args>
      <args> emetteurs[12] recepteurs[12] </args>
      <args> emetteurs[13] recepteurs[13] </args>
      <args> emetteurs[14] recepteurs[14] </args>
      <args> emetteurs[15] recepteurs[15] </args>
      <args> emetteurs[16] recepteurs[16] </args>
      <args> emetteurs[17] recepteurs[17] </args>
      <args> emetteurs[18] recepteurs[18] </args>
      <args> emetteurs[19] recepteurs[19] </args>
      <args> emetteurs[20] recepteurs[20] </args>
      <args> emetteurs[21] recepteurs[21] </args>
      <args> emetteurs[22] recepteurs[22] </args>
      <args> emetteurs[23] recepteurs[23] </args>
      <args> emetteurs[24] recepteurs[24] </args>
      <args> emetteurs[25] recepteurs[25] </args>
      <args> emetteurs[26] recepteurs[26] </args>
      <args> emetteurs[27] recepteurs[27] </args>
      <args> emetteurs[28] recepteurs[28] </args>
      <args> emetteurs[29] recepteurs[29] </args>
      <args> emetteurs[30] recepteurs[30] </args>
      <args> emetteurs[31] recepteurs[31] </args>
      <args> emetteurs[32] recepteurs[32] </args>
      <args> emetteurs[33] recepteurs[33] </args>
      <args> emetteurs[34] recepteurs[34] </args>
      <args> emetteurs[35] recepteurs[35] </args>
      <args> emetteurs[36] recepteurs[36] </args>
      <args> emetteurs[37] recepteurs[37] </args>
      <args> emetteurs[38] recepteurs[38] </args>
      <args> emetteurs[39] recepteurs[39] </args>
      <args> emetteurs[40] recepteurs[40] </args>
      <args> emetteurs[41] recepteurs[41] </args>
      <args> emetteurs[42] recepteurs[42] </args>
      <args> emetteurs[43] recepteurs[43] </args>
      <args> emetteurs[44] recepteurs[44] </args>
      <args> emetteurs[45] recepteurs[45] </args>
      <args> emetteurs[46] recepteurs[46] </args>
      <args> emetteurs[47] recepteurs[47] </args>
      <args> emetteurs[48] recepteurs[48] </args>
      <args> emetteurs[49] recepteurs[49] </args>
      <args> emetteurs[50] recepteurs[50] </args>
      <args> emetteurs[51] recepteurs[51] </args>
      <args> emetteurs[52] recepteurs[52] </args>
      <args> emetteurs[53] recepteurs[53] </args>
      <args> emetteurs[54] recepteurs[54] </args>
      <args> emetteurs[55] recepteurs[55] </args>
      <args> emetteurs[56] recepteurs[56] </args>
      <args> emetteurs[57] recepteurs[57] </args>
      <args> emetteurs[58] recepteurs[58] </args>
      <args> emetteurs[59] recepteurs[59] </args>
      <args> emetteurs[60] recepteurs[60] </args>
      <args> emetteurs[61] recepteurs[61] </args>
      <args> emetteurs[62] recepteurs[62] </args>
      <args> emetteurs[63] recepteurs[63] </args>
      <args> emetteurs[64] recepteurs[64] </args>
      <args> emetteurs[65] recepteurs[65] </args>
      <args> emetteurs[66] recepteurs[66] </args>
      <args> emetteurs[67] recepteurs[67] </args>
      <args> emetteurs[68] recepteurs[68] </args>
      <args> emetteurs[69] recepteurs[69] </args>
      <args> emetteurs[70] recepteurs[70] </args>
      <args> emetteurs[71] recepteurs[71] </args>
      <args> emetteurs[72] recepteurs[72] </args>
      <args> emetteurs[73] recepteurs[73] </args>
      <args> emetteurs[74] recepteurs[74] </args>
      <args> emetteurs[75] recepteurs[75] </args>
      <args> emetteurs[76] recepteurs[76] </args>
      <args> emetteurs[77] recepteurs[77] </args>
      <args> emetteurs[78] recepteurs[78] </args>
      <args> emetteurs[79] recepteurs[79] </args>
      <args> emetteurs[80] recepteurs[80] </args>
      <args> emetteurs[81] recepteurs[81] </args>
      <args> emetteurs[82] recepteurs[82] </args>
      <args> emetteurs[83] recepteurs[83] </args>
      <args> emetteurs[84] recepteurs[84] </args>
      <args> emetteurs[85] recepteurs[85] </args>
      <args> emetteurs[86] recepteurs[86] </args>
      <args> emetteurs[87] recepteurs[87] </args>
      <args> emetteurs[88] recepteurs[88] </args>
      <args> emetteurs[89] recepteurs[89] </args>
      <args> emetteurs[90] recepteurs[90] </args>
      <args> emetteurs[91] recepteurs[91] </args>
      <args> emetteurs[92] recepteurs[92] </args>
      <args> emetteurs[93] recepteurs[93] </args>
      <args> emetteurs[94] recepteurs[94] </args>
      <args> emetteurs[95] recepteurs[95] </args>
      <args> emetteurs[96] recepteurs[96] </args>
      <args> emetteurs[97] recepteurs[97] </args>
      <args> emetteurs[98] recepteurs[98] </args>
      <args> emetteurs[99] recepteurs[99] </args>
      <args> emetteurs[100] recepteurs[100] </args>
      <args> emetteurs[101] recepteurs[101] </args>
      <args> emetteurs[102] recepteurs[102] </args>
      <args> emetteurs[103] recepteurs[103] </args>
      <args> emetteurs[104] recepteurs[104] </args>
      <args> emetteurs[105] recepteurs[105] </args>
      <args> emetteurs[106] recepteurs[106] </args>
      <args> emetteurs[107] recepteurs[107] </args>
      <args> emetteurs[108] recepteurs[108] </args>
      <args> emetteurs[109] recepteurs[109] </args>
      <args> emetteurs[110] recepteurs[110] </args>
      <args> emetteurs[111] recepteurs[111] </args>
      <args> emetteurs[112] recepteurs[112] </args>
      <args> emetteurs[113] recepteurs[113] </args>
      <args> emetteurs[114] recepteurs[114] </args>
      <args> emetteurs[115] recepteurs[115] </args>
      <args> emetteurs[116] recepteurs[116] </args>
      <args> emetteurs[117] recepteurs[117] </args>
      <args> emetteurs[118] recepteurs[118] </args>
      <args> emetteurs[119] recepteurs[119] </args>
      <args> emetteurs[120] recepteurs[120] </args>
      <args> emetteurs[121] recepteurs[121] </args>
      <args> emetteurs[122] recepteurs[122] </args>
      <args> emetteurs[123] recepteurs[123] </args>
      <args> emetteurs[124] recepteurs[124] </args>
      <args> emetteurs[125] recepteurs[125] </args>
      <args> emetteurs[126] recepteurs[126] </args>
      <args> emetteurs[127] recepteurs[127] </args>
      <args> emetteurs[128] recepteurs[128] </args>
      <args> emetteurs[129] recepteurs[129] </args>
      <args> emetteurs[130] recepteurs[130] </args>
      <args> emetteurs[131] recepteurs[131] </args>
      <args> emetteurs[132] recepteurs[132] </args>
      <args> emetteurs[133] recepteurs[133] </args>
      <args> emetteurs[134] recepteurs[134] </args>
      <args> emetteurs[135] recepteurs[135] </args>
      <args> emetteurs[136] recepteurs[136] </args>
      <args> emetteurs[137] recepteurs[137] </args>
      <args> emetteurs[138] recepteurs[138] </args>
      <args> emetteurs[139] recepteurs[139] </args>
      <args> emetteurs[140] recepteurs[140] </args>
      <args> emetteurs[141] recepteurs[141] </args>
      <args> emetteurs[142] recepteurs[142] </args>
      <args> emetteurs[143] recepteurs[143] </args>
      <args> emetteurs[144] recepteurs[144] </args>
      <args> emetteurs[145] recepteurs[145] </args>
      <args> emetteurs[146] recepteurs[146] </args>
      <args> emetteurs[147] recepteurs[147] </args>
      <args> emetteurs[148] recepteurs[148] </args>
      <args> emetteurs[149] recepteurs[149] </args>
    </group>
    <group note="distance entre fréquence de station proche">
      <intension> and(ge(dist(%0,%1),%2),ge(dist(%3,%4),%2)) </intension>
      <args> emetteurs[0] emetteurs[94] 50 recepteurs[0] recepteurs[94] </args>
      <args> emetteurs[1] emetteurs[123] 50 recepteurs[1] recepteurs[123] </args>
      <args> emetteurs[2] emetteurs[42] 50 recepteurs[2] recepteurs[42] </args>
      <args> emetteurs[2] emetteurs[129] 50 recepteurs[2] recepteurs[129] </args>
      <args> emetteurs[2] emetteurs[53] 40 recepteurs[2] recepteurs[53] </args>
      <args> emetteurs[3] emetteurs[104] 30 recepteurs[3] recepteurs[104] </args>
      <args> emetteurs[4] emetteurs[116] 20 recepteurs[4] recepteurs[116] </args>
      <args> emetteurs[4] emetteurs[15] 20 recepteurs[4] recepteurs[15] </args>
      <args> emetteurs[6] emetteurs[143] 20 recepteurs[6] recepteurs[143] </args>
      <args> emetteurs[6] emetteurs[17] 40 recepteurs[6] recepteurs[17] </args>
      <args> emetteurs[6] emetteurs[35] 40 recepteurs[6] recepteurs[35] </args>
      <args> emetteurs[7] emetteurs[114] 30 recepteurs[7] recepteurs[114] </args>
      <args> emetteurs[7] emetteurs[8] 20 recepteurs[7] recepteurs[8] </args>
      <args> emetteurs[7] emetteurs[119] 40 recepteurs[7] recepteurs[119] </args>
      <args> emetteurs[7] emetteurs[13] 40 recepteurs[7] recepteurs[13] </args>
      <args> emetteurs[8] emetteurs[95] 50 recepteurs[8] recepteurs[95] </args>
      <args> emetteurs[8] emetteurs[119] 30 recepteurs[8] recepteurs[119] </args>
      <args> emetteurs[8] emetteurs[142] 40 recepteurs[8] recepteurs[142] </args>
      <args> emetteurs[9] emetteurs[22] 50 recepteurs[9] recepteurs[22] </args>
      <args> emetteurs[10] emetteurs[148] 50 recepteurs[10] recepteurs[148] </args>
      <args> emetteurs[10] emetteurs[100] 40 recepteurs[10] recepteurs[100] </args>
      <args> emetteurs[10] emetteurs[83] 40 recepteurs[10] recepteurs[83] </args>
      <args> emetteurs[11] emetteurs[43] 40 recepteurs[11] recepteurs[43] </args>
      <args> emetteurs[11] emetteurs[111] 40 recepteurs[11] recepteurs[111] </args>
      <args> emetteurs[12] emetteurs[105] 30 recepteurs[12] recepteurs[105] </args>
      <args> emetteurs[12] emetteurs[108] 20 recepteurs[12] recepteurs[108] </args>
      <args> emetteurs[12] emetteurs[24] 40 recepteurs[12] recepteurs[24] </args>
      <args> emetteurs[12] emetteurs[57] 20 recepteurs[12] recepteurs[57] </args>
      <args> emetteurs[12] emetteurs[117] 30 recepteurs[12] recepteurs[117] </args>
      <args> emetteurs[12] emetteurs[102] 40 recepteurs[12] recepteurs[102] </args>
      <args> emetteurs[12] emetteurs[49] 30 recepteurs[12] recepteurs[49] </args>
      <args> emetteurs[13] emetteurs[67] 30 recepteurs[13] recepteurs[67] </args>
      <args> emetteurs[13] emetteurs[29] 50 recepteurs[13] recepteurs[29] </args>
      <args> emetteurs[13] emetteurs[55] 20 recepteurs[13] recepteurs[55] </args>
      <args> emetteurs[14] emetteurs[21] 50 recepteurs[14] recepteurs[21] </args>
      <args> emetteurs[14] emetteurs[53] 20 recepteurs[14] recepteurs[53] </args>
      <args> emetteurs[15] emetteurs[140] 50 recepteurs[15] recepteurs[140] </args>
      <args> emetteurs[16] emetteurs[138] 40 recepteurs[16] recepteurs[138] </args>
      <args> emetteurs[16] emetteurs[110] 40 recepteurs[16] recepteurs[110] </args>
      <args> emetteurs[17] emetteurs[121] 50 recepteurs[17] recepteurs[121] </args>
      <args> emetteurs[17] emetteurs[84] 40 recepteurs[17] recepteurs[84] </args>
      <args> emetteurs[18] emetteurs[49] 40 recepteurs[18] recepteurs[49] </args>
      <args> emetteurs[19] emetteurs[140] 20 recepteurs[19] recepteurs[140] </args>
      <args> emetteurs[19] emetteurs[101] 30 recepteurs[19] recepteurs[101] </args>
      <args> emetteurs[20] emetteurs[82] 50 recepteurs[20] recepteurs[82] </args>
      <args> emetteurs[20] emetteurs[21] 40 recepteurs[20] recepteurs[21] </args>
      <args> emetteurs[21] emetteurs[79] 20 recepteurs[21] recepteurs[79] </args>
      <args> emetteurs[21] emetteurs[135] 40 recepteurs[21] recepteurs[135] </args>
      <args> emetteurs[21] emetteurs[23] 40 recepteurs[21] recepteurs[23] </args>
      <args> emetteurs[22] emetteurs[84] 30 recepteurs[22] recepteurs[84] </args>
      <args> emetteurs[24] emetteurs[105] 30 recepteurs[24] recepteurs[105] </args>
      <args> emetteurs[24] emetteurs[146] 40 recepteurs[24] recepteurs[146] </args>
      <args> emetteurs[24] emetteurs[120] 20 recepteurs[24] recepteurs[120] </args>
      <args> emetteurs[25] emetteurs[48] 20 recepteurs[25] recepteurs[48] </args>
      <args> emetteurs[26] emetteurs[71] 30 recepteurs[26] recepteurs[71] </args>
      <args> emetteurs[26] emetteurs[148] 20 recepteurs[26] recepteurs[148] </args>
      <args> emetteurs[26] emetteurs[123] 30 recepteurs[26] recepteurs[123] </args>
      <args> emetteurs[27] emetteurs[104] 20 recepteurs[27] recepteurs[104] </args>
      <args> emetteurs[27] emetteurs[38] 50 recepteurs[27] recepteurs[38] </args>
      <args> emetteurs[27] emetteurs[134] 50 recepteurs[27] recepteurs[134] </args>
      <args> emetteurs[27] emetteurs[62] 40 recepteurs[27] recepteurs[62] </args>
      <args> emetteurs[27] emetteurs[61] 40 recepteurs[27] recepteurs[61] </args>
      <args> emetteurs[28] emetteurs[71] 30 recepteurs[28] recepteurs[71] </args>
      <args> emetteurs[29] emetteurs[54] 30 recepteurs[29] recepteurs[54] </args>
      <args> emetteurs[30] emetteurs[107] 50 recepteurs[30] recepteurs[107] </args>
      <args> emetteurs[30] emetteurs[48] 50 recepteurs[30] recepteurs[48] </args>
      <args> emetteurs[31] emetteurs[116] 20 recepteurs[31] recepteurs[116] </args>
      <args> emetteurs[31] emetteurs[47] 40 recepteurs[31] recepteurs[47] </args>
      <args> emetteurs[32] emetteurs[83] 30 recepteurs[32] recepteurs[83] </args>
      <args> emetteurs[33] emetteurs[85] 50 recepteurs[33] recepteurs[85] </args>
      <args> emetteurs[33] emetteurs[135] 50 recepteurs[33] recepteurs[135] </args>
      <args> emetteurs[33] emetteurs[127] 40 recepteurs[33] recepteurs[127] </args>
      <args> emetteurs[33] emetteurs[102] 40 recepteurs[33] recepteurs[102] </args>
      <args> emetteurs[34] emetteurs[43] 40 recepteurs[34] recepteurs[43] </args>
      <args> emetteurs[35] emetteurs[105] 20 recepteurs[35] recepteurs[105] </args>
      <args> emetteurs[36] emetteurs[66] 20 recepteurs[36] recepteurs[66] </args>
      <args> emetteurs[36] emetteurs[145] 40 recepteurs[36] recepteurs[145] </args>
      <args> emetteurs[36] emetteurs[122] 20 recepteurs[36] recepteurs[122] </args>
      <args> emetteurs[36] emetteurs[62] 20 recepteurs[36] recepteurs[62] </args>
      <args> emetteurs[36] emetteurs[105] 20 recepteurs[36] recepteurs[105] </args>
      <args> emetteurs[36] emetteurs[57] 40 recepteurs[36] recepteurs[57] </args>
      <args> emetteurs[36] emetteurs[100] 20 recepteurs[36] recepteurs[100] </args>
      <args> emetteurs[36] emetteurs[56] 40 recepteurs[36] recepteurs[56] </args>
      <args> emetteurs[37] emetteurs[142] 20 recepteurs[37] recepteurs[142] </args>
      <args> emetteurs[38] emetteurs[145] 30 recepteurs[38] recepteurs[145] </args>
      <args> emetteurs[38] emetteurs[52] 20 recepteurs[38] recepteurs[52] </args>
      <args> emetteurs[39] emetteurs[87] 50 recepteurs[39] recepteurs[87] </args>
      <args> emetteurs[39] emetteurs[56] 30 recepteurs[39] recepteurs[56] </args>
      <args> emetteurs[39] emetteurs[100] 40 recepteurs[39] recepteurs[100] </args>
      <args> emetteurs[40] emetteurs[72] 20 recepteurs[40] recepteurs[72] </args>
      <args> emetteurs[40] emetteurs[42] 50 recepteurs[40] recepteurs[42] </args>
      <args> emetteurs[40] emetteurs[96] 20 recepteurs[40] recepteurs[96] </args>
      <args> emetteurs[40] emetteurs[129] 30 recepteurs[40] recepteurs[129] </args>
      <args> emetteurs[40] emetteurs[53] 30 recepteurs[40] recepteurs[53] </args>
      <args> emetteurs[41] emetteurs[74] 50 recepteurs[41] recepteurs[74] </args>
      <args> emetteurs[42] emetteurs[86] 30 recepteurs[42] recepteurs[86] </args>
      <args> emetteurs[43] emetteurs[101] 30 recepteurs[43] recepteurs[101] </args>
      <args> emetteurs[44] emetteurs[120] 50 recepteurs[44] recepteurs[120] </args>
      <args> emetteurs[45] emetteurs[95] 40 recepteurs[45] recepteurs[95] </args>
      <args> emetteurs[45] emetteurs[67] 30 recepteurs[45] recepteurs[67] </args>
      <args> emetteurs[45] emetteurs[89] 30 recepteurs[45] recepteurs[89] </args>
      <args> emetteurs[45] emetteurs[142] 40 recepteurs[45] recepteurs[142] </args>
      <args> emetteurs[46] emetteurs[76] 40 recepteurs[46] recepteurs[76] </args>
      <args> emetteurs[47] emetteurs[128] 40 recepteurs[47] recepteurs[128] </args>
      <args> emetteurs[48] emetteurs[132] 30 recepteurs[48] recepteurs[132] </args>
      <args> emetteurs[48] emetteurs[76] 20 recepteurs[48] recepteurs[76] </args>
      <args> emetteurs[48] emetteurs[113] 50 recepteurs[48] recepteurs[113] </args>
      <args> emetteurs[48] emetteurs[64] 40 recepteurs[48] recepteurs[64] </args>
      <args> emetteurs[48] emetteurs[137] 30 recepteurs[48] recepteurs[137] </args>
      <args> emetteurs[48] emetteurs[106] 40 recepteurs[48] recepteurs[106] </args>
      <args> emetteurs[48] emetteurs[49] 40 recepteurs[48] recepteurs[49] </args>
      <args> emetteurs[48] emetteurs[83] 20 recepteurs[48] recepteurs[83] </args>
      <args> emetteurs[48] emetteurs[69] 40 recepteurs[48] recepteurs[69] </args>
      <args> emetteurs[48] emetteurs[107] 20 recepteurs[48] recepteurs[107] </args>
      <args> emetteurs[48] emetteurs[123] 50 recepteurs[48] recepteurs[123] </args>
      <args> emetteurs[49] emetteurs[141] 30 recepteurs[49] recepteurs[141] </args>
      <args> emetteurs[49] emetteurs[52] 20 recepteurs[49] recepteurs[52] </args>
      <args> emetteurs[49] emetteurs[122] 20 recepteurs[49] recepteurs[122] </args>
      <args> emetteurs[49] emetteurs[81] 20 recepteurs[49] recepteurs[81] </args>
      <args> emetteurs[49] emetteurs[117] 40 recepteurs[49] recepteurs[117] </args>
      <args> emetteurs[50] emetteurs[90] 40 recepteurs[50] recepteurs[90] </args>
      <args> emetteurs[50] emetteurs[136] 20 recepteurs[50] recepteurs[136] </args>
      <args> emetteurs[51] emetteurs[53] 50 recepteurs[51] recepteurs[53] </args>
      <args> emetteurs[52] emetteurs[104] 20 recepteurs[52] recepteurs[104] </args>
      <args> emetteurs[53] emetteurs[72] 20 recepteurs[53] recepteurs[72] </args>
      <args> emetteurs[53] emetteurs[96] 50 recepteurs[53] recepteurs[96] </args>
      <args> emetteurs[53] emetteurs[76] 30 recepteurs[53] recepteurs[76] </args>
      <args> emetteurs[53] emetteurs[113] 50 recepteurs[53] recepteurs[113] </args>
      <args> emetteurs[53] emetteurs[75] 40 recepteurs[53] recepteurs[75] </args>
      <args> emetteurs[54] emetteurs[58] 50 recepteurs[54] recepteurs[58] </args>
      <args> emetteurs[54] emetteurs[142] 40 recepteurs[54] recepteurs[142] </args>
      <args> emetteurs[54] emetteurs[55] 20 recepteurs[54] recepteurs[55] </args>
      <args> emetteurs[55] emetteurs[144] 50 recepteurs[55] recepteurs[144] </args>
      <args> emetteurs[55] emetteurs[139] 20 recepteurs[55] recepteurs[139] </args>
      <args> emetteurs[56] emetteurs[117] 30 recepteurs[56] recepteurs[117] </args>
      <args> emetteurs[56] emetteurs[100] 30 recepteurs[56] recepteurs[100] </args>
      <args> emetteurs[57] emetteurs[147] 30 recepteurs[57] recepteurs[147] </args>
      <args> emetteurs[58] emetteurs[114] 50 recepteurs[58] recepteurs[114] </args>
      <args> emetteurs[58] emetteurs[144] 50 recepteurs[58] recepteurs[144] </args>
      <args> emetteurs[58] emetteurs[142] 50 recepteurs[58] recepteurs[142] </args>
      <args> emetteurs[59] emetteurs[83] 40 recepteurs[59] recepteurs[83] </args>
      <args> emetteurs[59] emetteurs[115] 30 recepteurs[59] recepteurs[115] </args>
      <args> emetteurs[60] emetteurs[121] 30 recepteurs[60] recepteurs[121] </args>
      <args> emetteurs[60] emetteurs[131] 40 recepteurs[60] recepteurs[131] </args>
      <args> emetteurs[60] emetteurs[92] 40 recepteurs[60] recepteurs[92] </args>
      <args> emetteurs[60] emetteurs[108] 40 recepteurs[60] recepteurs[108] </args>
      <args> emetteurs[60] emetteurs[61] 50 recepteurs[60] recepteurs[61] </args>
      <args> emetteurs[60] emetteurs[81] 30 recepteurs[60] recepteurs[81] </args>
      <args> emetteurs[61] emetteurs[105] 50 recepteurs[61] recepteurs[105] </args>
      <args> emetteurs[61] emetteurs[108] 50 recepteurs[61] recepteurs[108] </args>
      <args> emetteurs[62] emetteurs[122] 50 recepteurs[62] recepteurs[122] </args>
      <args> emetteurs[63] emetteurs[99] 30 recepteurs[63] recepteurs[99] </args>
      <args> emetteurs[63] emetteurs[87] 30 recepteurs[63] recepteurs[87] </args>
      <args> emetteurs[65] emetteurs[135] 50 recepteurs[65] recepteurs[135] </args>
      <args> emetteurs[66] emetteurs[145] 40 recepteurs[66] recepteurs[145] </args>
      <args> emetteurs[66] emetteurs[146] 40 recepteurs[66] recepteurs[146] </args>
      <args> emetteurs[68] emetteurs[87] 20 recepteurs[68] recepteurs[87] </args>
      <args> emetteurs[68] emetteurs[69] 20 recepteurs[68] recepteurs[69] </args>
      <args> emetteurs[68] emetteurs[133] 20 recepteurs[68] recepteurs[133] </args>
      <args> emetteurs[69] emetteurs[115] 30 recepteurs[69] recepteurs[115] </args>
      <args> emetteurs[70] emetteurs[127] 50 recepteurs[70] recepteurs[127] </args>
      <args> emetteurs[70] emetteurs[129] 30 recepteurs[70] recepteurs[129] </args>
      <args> emetteurs[71] emetteurs[78] 40 recepteurs[71] recepteurs[78] </args>
      <args> emetteurs[71] emetteurs[148] 30 recepteurs[71] recepteurs[148] </args>
      <args> emetteurs[71] emetteurs[115] 20 recepteurs[71] recepteurs[115] </args>
      <args> emetteurs[72] emetteurs[129] 40 recepteurs[72] recepteurs[129] </args>
      <args> emetteurs[72] emetteurs[100] 20 recepteurs[72] recepteurs[100] </args>
      <args> emetteurs[73] emetteurs[103] 40 recepteurs[73] recepteurs[103] </args>
      <args> emetteurs[73] emetteurs[100] 50 recepteurs[73] recepteurs[100] </args>
      <args> emetteurs[74] emetteurs[126] 40 recepteurs[74] recepteurs[126] </args>
      <args> emetteurs[75] emetteurs[124] 40 recepteurs[75] recepteurs[124] </args>
      <args> emetteurs[75] emetteurs[100] 50 recepteurs[75] recepteurs[100] </args>
      <args> emetteurs[77] emetteurs[82] 20 recepteurs[77] recepteurs[82] </args>
      <args> emetteurs[79] emetteurs[85] 20 recepteurs[79] recepteurs[85] </args>
      <args> emetteurs[79] emetteurs[135] 30 recepteurs[79] recepteurs[135] </args>
      <args> emetteurs[80] emetteurs[138] 50 recepteurs[80] recepteurs[138] </args>
      <args> emetteurs[80] emetteurs[91] 20 recepteurs[80] recepteurs[91] </args>
      <args> emetteurs[80] emetteurs[110] 50 recepteurs[80] recepteurs[110] </args>
      <args> emetteurs[81] emetteurs[120] 20 recepteurs[81] recepteurs[120] </args>
      <args> emetteurs[84] emetteurs[121] 50 recepteurs[84] recepteurs[121] </args>
      <args> emetteurs[84] emetteurs[105] 40 recepteurs[84] recepteurs[105] </args>
      <args> emetteurs[85] emetteurs[113] 40 recepteurs[85] recepteurs[113] </args>
      <args> emetteurs[86] emetteurs[129] 40 recepteurs[86] recepteurs[129] </args>
      <args> emetteurs[88] emetteurs[120] 50 recepteurs[88] recepteurs[120] </args>
      <args> emetteurs[89] emetteurs[119] 40 recepteurs[89] recepteurs[119] </args>
      <args> emetteurs[91] emetteurs[101] 20 recepteurs[91] recepteurs[101] </args>
      <args> emetteurs[91] emetteurs[138] 30 recepteurs[91] recepteurs[138] </args>
      <args> emetteurs[93] emetteurs[104] 40 recepteurs[93] recepteurs[104] </args>
      <args> emetteurs[93] emetteurs[141] 30 recepteurs[93] recepteurs[141] </args>
      <args> emetteurs[94] emetteurs[147] 40 recepteurs[94] recepteurs[147] </args>
      <args> emetteurs[94] emetteurs[106] 50 recepteurs[94] recepteurs[106] </args>
      <args> emetteurs[94] emetteurs[102] 20 recepteurs[94] recepteurs[102] </args>
      <args> emetteurs[96] emetteurs[100] 40 recepteurs[96] recepteurs[100] </args>
      <args> emetteurs[98] emetteurs[108] 50 recepteurs[98] recepteurs[108] </args>
      <args> emetteurs[99] emetteurs[102] 30 recepteurs[99] recepteurs[102] </args>
      <args> emetteurs[99] emetteurs[123] 30 recepteurs[99] recepteurs[123] </args>
      <args> emetteurs[100] emetteurs[127] 50 recepteurs[100] recepteurs[127] </args>
      <args> emetteurs[100] emetteurs[124] 20 recepteurs[100] recepteurs[124] </args>
      <args> emetteurs[100] emetteurs[148] 50 recepteurs[100] recepteurs[148] </args>
      <args> emetteurs[100] emetteurs[126] 20 recepteurs[100] recepteurs[126] </args>
      <args> emetteurs[100] emetteurs[117] 30 recepteurs[100] recepteurs[117] </args>
      <args> emetteurs[100] emetteurs[149] 30 recepteurs[100] recepteurs[149] </args>
      <args> emetteurs[101] emetteurs[138] 20 recepteurs[101] recepteurs[138] </args>
      <args> emetteurs[102] emetteurs[132] 50 recepteurs[102] recepteurs[132] </args>
      <args> emetteurs[102] emetteurs[125] 30 recepteurs[102] recepteurs[125] </args>
      <args> emetteurs[102] emetteurs[113] 30 recepteurs[102] recepteurs[113] </args>
      <args> emetteurs[104] emetteurs[122] 50 recepteurs[104] recepteurs[122] </args>
      <args> emetteurs[105] emetteurs[143] 20 recepteurs[105] recepteurs[143] </args>
      <args> emetteurs[105] emetteurs[131] 30 recepteurs[105] recepteurs[131] </args>
      <args> emetteurs[105] emetteurs[108] 30 recepteurs[105] recepteurs[108] </args>
      <args> emetteurs[106] emetteurs[121] 50 recepteurs[106] recepteurs[121] </args>
      <args> emetteurs[106] emetteurs[112] 20 recepteurs[106] recepteurs[112] </args>
      <args> emetteurs[107] emetteurs[149] 30 recepteurs[107] recepteurs[149] </args>
      <args> emetteurs[107] emetteurs[133] 30 recepteurs[107] recepteurs[133] </args>
      <args> emetteurs[108] emetteurs[120] 20 recepteurs[108] recepteurs[120] </args>
      <args> emetteurs[109] emetteurs[140] 50 recepteurs[109] recepteurs[140] </args>
      <args> emetteurs[109] emetteurs[111] 20 recepteurs[109] recepteurs[111] </args>
      <args> emetteurs[111] emetteurs[128] 20 recepteurs[111] recepteurs[128] </args>
      <args> emetteurs[112] emetteurs[147] 50 recepteurs[112] recepteurs[147] </args>
      <args> emetteurs[115] emetteurs[126] 20 recepteurs[115] recepteurs[126] </args>
      <args> emetteurs[116] emetteurs[128] 50 recepteurs[116] recepteurs[128] </args>
      <args> emetteurs[116] emetteurs[140] 20 recepteurs[116] recepteurs[140] </args>
      <args> emetteurs[117] emetteurs[147] 40 recepteurs[117] recepteurs[147] </args>
      <args> emetteurs[118] emetteurs[133] 30 recepteurs[118] recepteurs[133] </args>
      <args> emetteurs[121] emetteurs[131] 20 recepteurs[121] recepteurs[131] </args>
      <args> emetteurs[123] emetteurs[149] 30 recepteurs[123] recepteurs[149] </args>
      <args> emetteurs[123] emetteurs[128] 30 recepteurs[123] recepteurs[128] </args>
      <args> emetteurs[128] emetteurs[140] 30 recepteurs[128] recepteurs[140] </args>
      <args> emetteurs[136] emetteurs[138] 40 recepteurs[136] recepteurs[138] </args>
    </group>
    <group note="limiter le nombre de fréquences utilisé par station">
      <intension> le(add(%0,%1),%2) </intension>
      <args> aux_gb[0] aux_gb[1] 30 </args>
      <args> aux_gb[2] aux_gb[3] 28 </args>
      <args> aux_gb[4] aux_gb[5] 24 </args>
      <args> aux_gb[6] aux_gb[7] 18 </args>
      <args> aux_gb[8] aux_gb[9] 25 </args>
      <args> aux_gb[10] aux_gb[11] 24 </args>
      <args> aux_gb[12] aux_gb[13] 20 </args>
      <args> aux_gb[14] aux_gb[15] 14 </args>
      <args> aux_gb[16] aux_gb[17] 20 </args>
      <args> aux_gb[18] aux_gb[19] 19 </args>
      <args> aux_gb[20] aux_gb[21] 30 </args>
      <args> aux_gb[22] aux_gb[23] 14 </args>
      <args> aux_gb[24] aux_gb[25] 28 </args>
    </group>
    <group note="liaisons entre fréquences émettrices et réceptrices">
      <intension> eq(%0,%1) </intension>
      <args> emetteurs[0] recepteurs[12] </args>
      <args> emetteurs[2] recepteurs[86] </args>
      <args> emetteurs[3] recepteurs[62] </args>
      <args> emetteurs[5] recepteurs[28] </args>
      <args> emetteurs[11] recepteurs[80] </args>
      <args> emetteurs[12] recepteurs[146] </args>
      <args> emetteurs[14] recepteurs[23] </args>
      <args> emetteurs[15] recepteurs[128] </args>
      <args> emetteurs[16] recepteurs[34] </args>
      <args> emetteurs[16] recepteurs[97] </args>
      <args> emetteurs[28] recepteurs[74] </args>
      <args> emetteurs[34] recepteurs[50] </args>
      <args> emetteurs[36] recepteurs[104] </args>
      <args> emetteurs[37] recepteurs[89] </args>
      <args> emetteurs[39] recepteurs[115] </args>
      <args> emetteurs[43] recepteurs[90] </args>
      <args> emetteurs[45] recepteurs[144] </args>
      <args> emetteurs[46] recepteurs[70] </args>
      <args> emetteurs[47] recepteurs[101] </args>
      <args> emetteurs[47] recepteurs[50] </args>
      <args> emetteurs[51] recepteurs[100] </args>
      <args> emetteurs[55] recepteurs[89] </args>
      <args> emetteurs[55] recepteurs[70] </args>
      <args> emetteurs[62] recepteurs[93] </args>
      <args> emetteurs[70] recepteurs[102] </args>
      <args> emetteurs[72] recepteurs[127] </args>
      <args> emetteurs[75] recepteurs[94] </args>
      <args> emetteurs[76] recepteurs[100] </args>
      <args> emetteurs[84] recepteurs[130] </args>
      <args> emetteurs[88] recepteurs[106] </args>
      <args> emetteurs[99] recepteurs[106] </args>
      <args> emetteurs[102] recepteurs[117] </args>
      <args> emetteurs[107] recepteurs[118] </args>
      <args> emetteurs[108] recepteurs[130] </args>
      <args> emetteurs[109] recepteurs[123] </args>
    </group>
    <group>
      <intension> eq(%0,%1) </intension>
      <args> emetteurs[12] recepteurs[0] </args>
      <args> emetteurs[86] recepteurs[2] </args>
      <args> emetteurs[62] recepteurs[3] </args>
      <args> emetteurs[28] recepteurs[5] </args>
      <args> emetteurs[80] recepteurs[11] </args>
      <args> emetteurs[146] recepteurs[12] </args>
      <args> emetteurs[23] recepteurs[14] </args>
      <args> emetteurs[128] recepteurs[15] </args>
      <args> emetteurs[34] recepteurs[16] </args>
      <args> emetteurs[97] recepteurs[16] </args>
      <args> emetteurs[74] recepteurs[28] </args>
      <args> emetteurs[50] recepteurs[34] </args>
      <args> emetteurs[104] recepteurs[36] </args>
      <args> emetteurs[89] recepteurs[37] </args>
      <args> emetteurs[115] recepteurs[39] </args>
      <args> emetteurs[90] recepteurs[43] </args>
      <args> emetteurs[144] recepteurs[45] </args>
      <args> emetteurs[70] recepteurs[46] </args>
      <args> emetteurs[101] recepteurs[47] </args>
      <args> emetteurs[50] recepteurs[47] </args>
      <args> emetteurs[100] recepteurs[51] </args>
      <args> emetteurs[89] recepteurs[55] </args>
      <args> emetteurs[70] recepteurs[55] </args>
      <args> emetteurs[93] recepteurs[62] </args>
      <args> emetteurs[102] recepteurs[70] </args>
      <args> emetteurs[127] recepteurs[72] </args>
      <args> emetteurs[94] recepteurs[75] </args>
      <args> emetteurs[100] recepteurs[76] </args>
      <args> emetteurs[130] recepteurs[84] </args>
      <args> emetteurs[106] recepteurs[88] </args>
      <args> emetteurs[106] recepteurs[99] </args>
      <args> emetteurs[117] recepteurs[102] </args>
      <args> emetteurs[118] recepteurs[107] </args>
      <args> emetteurs[130] recepteurs[108] </args>
      <args> emetteurs[123] recepteurs[109] </args>
    </group>
    <group>
      <nValues>
        <list> %... </list>
        <condition> (eq,%0) </condition>
      </nValues>
      <args> aux_gb[0] emetteurs[11] emetteurs[16] emetteurs[34] emetteurs[43] emetteurs[47] emetteurs[50] emetteurs[80] emetteurs[90..91] emetteurs[97] emetteurs[101] emetteurs[110..111] emetteurs[136] emetteurs[138] </args>
      <args> aux_gb[1] recepteurs[11] recepteurs[16] recepteurs[34] recepteurs[43] recepteurs[47] recepteurs[50] recepteurs[80] recepteurs[90..91] recepteurs[97] recepteurs[101] recepteurs[110..111] recepteurs[136] recepteurs[138] </args>
      <args> aux_gb[2] emetteurs[5] emetteurs[10] emetteurs[26] emetteurs[28] emetteurs[41] emetteurs[71] emetteurs[73..74] emetteurs[78] emetteurs[83] emetteurs[103] emetteurs[115] emetteurs[126] emetteurs[148] </args>
      <args> aux_gb[3] recepteurs[5] recepteurs[10] recepteurs[26] recepteurs[28] recepteurs[41] recepteurs[71] recepteurs[73..74] recepteurs[78] recepteurs[83] recepteurs[103] recepteurs[115] recepteurs[126] recepteurs[148] </args>
      <args> aux_gb[4] emetteurs[18] emetteurs[24] emetteurs[44] emetteurs[49] emetteurs[81] emetteurs[88] emetteurs[98] emetteurs[105..106] emetteurs[108] emetteurs[120] emetteurs[146] </args>
      <args> aux_gb[5] recepteurs[18] recepteurs[24] recepteurs[44] recepteurs[49] recepteurs[81] recepteurs[88] recepteurs[98] recepteurs[105..106] recepteurs[108] recepteurs[120] recepteurs[146] </args>
      <args> aux_gb[6] emetteurs[1] emetteurs[32] emetteurs[39] emetteurs[59] emetteurs[63] emetteurs[68..69] emetteurs[87] emetteurs[123] </args>
      <args> aux_gb[7] recepteurs[1] recepteurs[32] recepteurs[39] recepteurs[59] recepteurs[63] recepteurs[68..69] recepteurs[87] recepteurs[123] </args>
      <args> aux_gb[8] emetteurs[2] emetteurs[40] emetteurs[42] emetteurs[51] emetteurs[53] emetteurs[55] emetteurs[70] emetteurs[72] emetteurs[86] emetteurs[96] emetteurs[127] emetteurs[129] emetteurs[139] </args>
      <args> aux_gb[9] recepteurs[2] recepteurs[40] recepteurs[42] recepteurs[51] recepteurs[53] recepteurs[55] recepteurs[70] recepteurs[72] recepteurs[86] recepteurs[96] recepteurs[127] recepteurs[129] recepteurs[139] </args>
      <args> aux_gb[10] emetteurs[6] emetteurs[9] emetteurs[17] emetteurs[22] emetteurs[35] emetteurs[60] emetteurs[84] emetteurs[92] emetteurs[121] emetteurs[130..131] emetteurs[143] </args>
      <args> aux_gb[11] recepteurs[6] recepteurs[9] recepteurs[17] recepteurs[22] recepteurs[35] recepteurs[60] recepteurs[84] recepteurs[92] recepteurs[121] recepteurs[130..131] recepteurs[143] </args>
      <args> aux_gb[12] emetteurs[0] emetteurs[12] emetteurs[48] emetteurs[56..57] emetteurs[99] emetteurs[102] emetteurs[112] emetteurs[117] emetteurs[137] emetteurs[147] </args>
      <args> aux_gb[13] recepteurs[0] recepteurs[12] recepteurs[48] recepteurs[56..57] recepteurs[99] recepteurs[102] recepteurs[112] recepteurs[117] recepteurs[137] recepteurs[147] </args>
      <args> aux_gb[14] emetteurs[4] emetteurs[15] emetteurs[19] emetteurs[31] emetteurs[109] emetteurs[116] emetteurs[128] emetteurs[140] </args>
      <args> aux_gb[15] recepteurs[4] recepteurs[15] recepteurs[19] recepteurs[31] recepteurs[109] recepteurs[116] recepteurs[128] recepteurs[140] </args>
      <args> aux_gb[16] emetteurs[20..21] emetteurs[23] emetteurs[33] emetteurs[65] emetteurs[77] emetteurs[79] emetteurs[82] emetteurs[85] emetteurs[135] </args>
      <args> aux_gb[17] recepteurs[20..21] recepteurs[23] recepteurs[33] recepteurs[65] recepteurs[77] recepteurs[79] recepteurs[82] recepteurs[85] recepteurs[135] </args>
      <args> aux_gb[18] emetteurs[14] emetteurs[46] emetteurs[64] emetteurs[75..76] emetteurs[94] emetteurs[113] emetteurs[124..125] emetteurs[132] </args>
      <args> aux_gb[19] recepteurs[14] recepteurs[46] recepteurs[64] recepteurs[75..76] recepteurs[94] recepteurs[113] recepteurs[124..125] recepteurs[132] </args>
      <args> aux_gb[20] emetteurs[7..8] emetteurs[13] emetteurs[29] emetteurs[37] emetteurs[45] emetteurs[54] emetteurs[58] emetteurs[67] emetteurs[89] emetteurs[95] emetteurs[114] emetteurs[119] emetteurs[142] emetteurs[144] </args>
      <args> aux_gb[21] recepteurs[7..8] recepteurs[13] recepteurs[29] recepteurs[37] recepteurs[45] recepteurs[54] recepteurs[58] recepteurs[67] recepteurs[89] recepteurs[95] recepteurs[114] recepteurs[119] recepteurs[142] recepteurs[144] </args>
      <args> aux_gb[22] emetteurs[25] emetteurs[30] emetteurs[100] emetteurs[107] emetteurs[118] emetteurs[133] emetteurs[149] </args>
      <args> aux_gb[23] recepteurs[25] recepteurs[30] recepteurs[100] recepteurs[107] recepteurs[118] recepteurs[133] recepteurs[149] </args>
      <args> aux_gb[24] emetteurs[3] emetteurs[27] emetteurs[36] emetteurs[38] emetteurs[52] emetteurs[61..62] emetteurs[66] emetteurs[93] emetteurs[104] emetteurs[122] emetteurs[134] emetteurs[141] emetteurs[145] </args>
      <args> aux_gb[25] recepteurs[3] recepteurs[27] recepteurs[36] recepteurs[38] recepteurs[52] recepteurs[61..62] recepteurs[66] recepteurs[93] recepteurs[104] recepteurs[122] recepteurs[134] recepteurs[141] recepteurs[145] </args>
    </group>
  </constraints>
  <objectives>
    <minimize type="maximum"> emetteurs[] recepteurs[] </minimize>
  </objectives>
</instance>
